files/upTests/tupley32-8-7/0001.eprime
language ESSENCE' 1.0

find pain_tuple1_tuple1: matrix indexed by [int(1), int(1)] of int(12)
find pain_tuple1_tuple2: matrix indexed by [int(1), int(1)] of int(13)
find pain_tuple2_tuple1: matrix indexed by [int(1)] of int(14)
find pain_tuple2_tuple2: matrix indexed by [int(1)] of int(15)
such that
    pain_tuple1_tuple1[1, 1] = 12,
    pain_tuple1_tuple2[1, 1] = 13,
    pain_tuple2_tuple1[1] = 14,
    pain_tuple2_tuple2[1] = 15
