files/upTests/tupley32-8-7/0001.eprime.solution
language ESSENCE' 1.0
$ minion Nodes: 1
$ minion TotalTime: 0.000574
$ Savile Row TotalTime: 0.259
letting pain_tuple1_tuple1 be [[12;int(1)];int(1)]
letting pain_tuple1_tuple2 be [[13;int(1)];int(1)]
letting pain_tuple2_tuple1 be [14;int(1)]
letting pain_tuple2_tuple2 be [15;int(1)]
